n_nodes = 720;
M = 6701;
n_domains = 18;
domain_link_weights = [|0,6701,6701,358,6701,6701,6701,6701,6701,6701,6701,6701,6701,6701,6701,6701,6701,6701|6701,0,6701,6701,6701,479,344,264,6701,6701,6701,6701,6701,6701,6701,6701,6701,6701|6701,6701,0,6701,6701,6701,6701,6701,6701,972,6701,6701,6701,6701,1788,6701,6701,6701|6701,6701,6701,0,6701,6701,6701,6701,6701,6701,6701,6701,6701,6701,6701,6701,6701,6701|6701,6701,6701,6701,0,364,358,173,6701,6701,6701,6701,6701,6701,6701,6701,6701,6223|6701,6701,6701,6701,6701,0,6701,6701,6701,6701,6701,6701,6701,6701,6701,6701,6701,6701|6701,6701,6701,6701,6701,6701,0,6701,5585,6701,6701,6701,6701,6701,6701,6701,6701,6701|6701,6701,6701,6701,6701,6701,6701,0,6701,6701,6701,6701,6701,6701,6701,6701,6701,6701|6701,6701,6701,6701,6701,6701,6701,6701,0,6701,6701,6701,6701,6701,6701,1148,556,350|6701,6701,6701,6701,6701,6701,6701,6701,6701,0,6701,6701,6701,2562,6701,943,6701,852|6701,6701,6701,6701,6701,6701,6701,6701,6701,6701,0,1141,6701,6701,6701,2795,6701,6701|6701,6701,6701,6701,6701,6701,6701,6701,6701,6701,6701,0,492,6701,6701,2963,6701,3855|6701,6701,6701,6701,6701,6701,6701,6701,6701,6701,6701,6701,0,575,1995,2807,6701,6701|6701,6701,6701,6701,6701,6701,6701,6701,6701,6701,6701,6701,6701,0,1425,6701,6701,6701|6701,6701,6701,6701,6701,6701,6701,6701,6701,6701,6701,6701,6701,6701,0,1291,6701,1872|6701,6701,6701,6701,6701,6701,6701,6701,6701,6701,6701,6701,6701,6701,6701,0,704,916|6701,6701,6701,6701,6701,6701,6701,6701,6701,6701,6701,6701,6701,6701,6701,6701,0,6701|6701,6701,6701,6701,6701,6701,6701,6701,6701,6701,6701,6701,6701,6701,6701,6701,6701,0|];
num_node_links = 1435;
node_links = [|1,3|1,4|2,6|2,7|2,8|3,10|3,15|5,6|5,7|5,8|5,18|7,9|9,16|9,17|9,18|10,14|10,16|10,18|11,12|11,16|12,13|12,16|12,18|13,14|13,15|13,16|14,15|15,16|15,18|16,17|16,18|1,19|19,1|1,51|51,1|1,65|65,1|1,66|66,1|1,115|115,1|1,117|117,1|1,119|119,1|1,139|139,1|1,166|166,1|1,171|171,1|1,206|206,1|1,224|224,1|1,231|231,1|1,238|238,1|1,240|240,1|1,289|289,1|1,297|297,1|1,298|298,1|1,302|302,1|1,304|304,1|1,342|342,1|1,353|353,1|1,475|475,1|1,506|506,1|1,514|514,1|1,520|520,1|1,528|528,1|1,529|529,1|1,577|577,1|1,579|579,1|1,580|580,1|1,581|581,1|1,583|583,1|1,591|591,1|1,599|599,1|1,632|632,1|1,655|655,1|1,659|659,1|1,674|674,1|1,699|699,1|2,20|20,2|2,97|97,2|2,126|126,2|2,128|128,2|2,130|130,2|2,190|190,2|2,194|194,2|2,199|199,2|2,222|222,2|2,290|290,2|2,296|296,2|2,315|315,2|2,329|329,2|2,332|332,2|2,336|336,2|2,351|351,2|2,372|372,2|2,377|377,2|2,421|421,2|2,422|422,2|2,424|424,2|2,446|446,2|2,485|485,2|2,509|509,2|2,532|532,2|2,546|546,2|2,551|551,2|2,555|555,2|2,562|562,2|2,593|593,2|2,603|603,2|2,639|639,2|2,665|665,2|2,675|675,2|2,688|688,2|2,691|691,2|2,695|695,2|2,696|696,2|2,700|700,2|2,720|720,2|3,21|21,3|3,42|42,3|3,44|44,3|3,57|57,3|3,68|68,3|3,88|88,3|3,132|132,3|3,135|135,3|3,170|170,3|3,183|183,3|3,192|192,3|3,201|201,3|3,205|205,3|3,210|210,3|3,212|212,3|3,228|228,3|3,237|237,3|3,260|260,3|3,264|264,3|3,273|273,3|3,274|274,3|3,292|292,3|3,327|327,3|3,340|340,3|3,358|358,3|3,368|368,3|3,412|412,3|3,445|445,3|3,500|500,3|3,516|516,3|3,517|517,3|3,542|542,3|3,554|554,3|3,569|569,3|3,637|637,3|3,642|642,3|3,651|651,3|3,653|653,3|3,662|662,3|3,704|704,3|4,22|22,4|4,46|46,4|4,106|106,4|4,123|123,4|4,129|129,4|4,138|138,4|4,144|144,4|4,152|152,4|4,153|153,4|4,161|161,4|4,178|178,4|4,179|179,4|4,198|198,4|4,247|247,4|4,256|256,4|4,305|305,4|4,316|316,4|4,321|321,4|4,348|348,4|4,352|352,4|4,357|357,4|4,362|362,4|4,404|404,4|4,411|411,4|4,417|417,4|4,443|443,4|4,472|472,4|4,479|479,4|4,513|513,4|4,523|523,4|4,556|556,4|4,576|576,4|4,622|622,4|4,630|630,4|4,635|635,4|4,638|638,4|4,645|645,4|4,649|649,4|4,654|654,4|4,693|693,4|5,23|23,5|5,39|39,5|5,47|47,5|5,55|55,5|5,74|74,5|5,75|75,5|5,90|90,5|5,95|95,5|5,103|103,5|5,112|112,5|5,121|121,5|5,142|142,5|5,149|149,5|5,158|158,5|5,181|181,5|5,236|236,5|5,267|267,5|5,313|313,5|5,323|323,5|5,328|328,5|5,330|330,5|5,334|334,5|5,388|388,5|5,394|394,5|5,420|420,5|5,447|447,5|5,499|499,5|5,518|518,5|5,531|531,5|5,544|544,5|5,584|584,5|5,587|587,5|5,592|592,5|5,606|606,5|5,626|626,5|5,669|669,5|5,685|685,5|5,708|708,5|6,24|24,6|6,40|40,6|6,77|77,6|6,89|89,6|6,100|100,6|6,104|104,6|6,110|110,6|6,127|127,6|6,160|160,6|6,167|167,6|6,197|197,6|6,218|218,6|6,223|223,6|6,245|245,6|6,250|250,6|6,268|268,6|6,301|301,6|6,308|308,6|6,310|310,6|6,399|399,6|6,426|426,6|6,480|480,6|6,481|481,6|6,492|492,6|6,497|497,6|6,519|519,6|6,537|537,6|6,557|557,6|6,559|559,6|6,564|564,6|6,575|575,6|6,614|614,6|6,624|624,6|6,627|627,6|6,657|657,6|6,660|660,6|6,668|668,6|6,694|694,6|6,706|706,6|6,714|714,6|7,25|25,7|7,49|49,7|7,72|72,7|7,76|76,7|7,157|157,7|7,162|162,7|7,235|235,7|7,242|242,7|7,253|253,7|7,263|263,7|7,269|269,7|7,277|277,7|7,288|288,7|7,303|303,7|7,318|318,7|7,359|359,7|7,418|418,7|7,428|428,7|7,429|429,7|7,430|430,7|7,431|431,7|7,435|435,7|7,463|463,7|7,468|468,7|7,473|473,7|7,496|496,7|7,505|505,7|7,524|524,7|7,547|547,7|7,550|550,7|7,568|568,7|7,600|600,7|7,602|602,7|7,617|617,7|7,620|620,7|7,643|643,7|7,661|661,7|7,670|670,7|7,672|672,7|7,681|681,7|8,26|26,8|8,54|54,8|8,70|70,8|8,73|73,8|8,83|83,8|8,91|91,8|8,96|96,8|8,111|111,8|8,137|137,8|8,172|172,8|8,180|180,8|8,200|200,8|8,258|258,8|8,287|287,8|8,294|294,8|8,300|300,8|8,324|324,8|8,376|376,8|8,380|380,8|8,389|389,8|8,391|391,8|8,392|392,8|8,416|416,8|8,441|441,8|8,442|442,8|8,454|454,8|8,465|465,8|8,495|495,8|8,515|515,8|8,530|530,8|8,560|560,8|8,566|566,8|8,573|573,8|8,605|605,8|8,616|616,8|8,644|644,8|8,648|648,8|8,664|664,8|8,689|689,8|8,707|707,8|9,27|27,9|9,38|38,9|9,92|92,9|9,133|133,9|9,143|143,9|9,189|189,9|9,191|191,9|9,221|221,9|9,272|272,9|9,278|278,9|9,282|282,9|9,293|293,9|9,299|299,9|9,331|331,9|9,346|346,9|9,354|354,9|9,355|355,9|9,382|382,9|9,386|386,9|9,393|393,9|9,401|401,9|9,409|409,9|9,444|444,9|9,453|453,9|9,458|458,9|9,469|469,9|9,470|470,9|9,476|476,9|9,498|498,9|9,607|607,9|9,612|612,9|9,615|615,9|9,658|658,9|9,684|684,9|9,690|690,9|9,710|710,9|9,711|711,9|9,719|719,9|10,28|28,10|10,59|59,10|10,78|78,10|10,156|156,10|10,184|184,10|10,207|207,10|10,216|216,10|10,243|243,10|10,254|254,10|10,257|257,10|10,280|280,10|10,317|317,10|10,320|320,10|10,339|339,10|10,374|374,10|10,397|397,10|10,406|406,10|10,410|410,10|10,413|413,10|10,415|415,10|10,423|423,10|10,434|434,10|10,437|437,10|10,439|439,10|10,503|503,10|10,508|508,10|10,525|525,10|10,538|538,10|10,558|558,10|10,563|563,10|10,567|567,10|10,571|571,10|10,604|604,10|10,610|610,10|10,634|634,10|10,656|656,10|10,666|666,10|10,678|678,10|10,703|703,10|10,718|718,10|11,29|29,11|11,48|48,11|11,61|61,11|11,69|69,11|11,80|80,11|11,84|84,11|11,98|98,11|11,116|116,11|11,125|125,11|11,168|168,11|11,174|174,11|11,185|185,11|11,186|186,11|11,220|220,11|11,229|229,11|11,232|232,11|11,244|244,11|11,248|248,11|11,251|251,11|11,276|276,11|11,338|338,11|11,398|398,11|11,403|403,11|11,407|407,11|11,433|433,11|11,455|455,11|11,462|462,11|11,467|467,11|11,502|502,11|11,534|534,11|11,535|535,11|11,594|594,11|11,597|597,11|11,609|609,11|11,641|641,11|11,667|667,11|11,673|673,11|11,705|705,11|11,709|709,11|11,717|717,11|12,30|30,12|12,37|37,12|12,53|53,12|12,56|56,12|12,58|58,12|12,81|81,12|12,86|86,12|12,108|108,12|12,114|114,12|12,124|124,12|12,141|141,12|12,145|145,12|12,165|165,12|12,202|202,12|12,203|203,12|12,208|208,12|12,211|211,12|12,214|214,12|12,249|249,12|12,279|279,12|12,312|312,12|12,333|333,12|12,347|347,12|12,350|350,12|12,360|360,12|12,384|384,12|12,425|425,12|12,565|565,12|12,570|570,12|12,598|598,12|12,601|601,12|12,613|613,12|12,618|618,12|12,633|633,12|12,636|636,12|12,652|652,12|12,663|663,12|12,698|698,12|13,31|31,13|13,45|45,13|13,50|50,13|13,52|52,13|13,67|67,13|13,150|150,13|13,182|182,13|13,215|215,13|13,217|217,13|13,227|227,13|13,239|239,13|13,271|271,13|13,284|284,13|13,285|285,13|13,286|286,13|13,335|335,13|13,343|343,13|13,345|345,13|13,378|378,13|13,387|387,13|13,457|457,13|13,459|459,13|13,494|494,13|13,501|501,13|13,512|512,13|13,526|526,13|13,548|548,13|13,595|595,13|13,596|596,13|13,608|608,13|13,623|623,13|13,629|629,13|13,631|631,13|13,677|677,13|13,702|702,13|13,713|713,13|14,32|32,14|14,82|82,14|14,99|99,14|14,148|148,14|14,163|163,14|14,177|177,14|14,188|188,14|14,213|213,14|14,226|226,14|14,233|233,14|14,241|241,14|14,266|266,14|14,283|283,14|14,306|306,14|14,325|325,14|14,326|326,14|14,341|341,14|14,344|344,14|14,349|349,14|14,367|367,14|14,375|375,14|14,390|390,14|14,414|414,14|14,436|436,14|14,450|450,14|14,451|451,14|14,489|489,14|14,490|490,14|14,507|507,14|14,511|511,14|14,541|541,14|14,553|553,14|14,561|561,14|14,582|582,14|14,589|589,14|14,647|647,14|14,650|650,14|14,671|671,14|14,679|679,14|14,683|683,14|15,33|33,15|15,79|79,15|15,87|87,15|15,107|107,15|15,120|120,15|15,136|136,15|15,146|146,15|15,147|147,15|15,164|164,15|15,175|175,15|15,193|193,15|15,219|219,15|15,230|230,15|15,246|246,15|15,259|259,15|15,265|265,15|15,361|361,15|15,369|369,15|15,383|383,15|15,396|396,15|15,400|400,15|15,440|440,15|15,456|456,15|15,471|471,15|15,486|486,15|15,488|488,15|15,491|491,15|15,522|522,15|15,536|536,15|15,545|545,15|15,549|549,15|15,574|574,15|15,588|588,15|15,611|611,15|15,628|628,15|15,646|646,15|15,686|686,15|15,701|701,15|15,715|715,15|15,716|716,15|16,34|34,16|16,71|71,16|16,93|93,16|16,102|102,16|16,109|109,16|16,122|122,16|16,131|131,16|16,134|134,16|16,140|140,16|16,155|155,16|16,195|195,16|16,204|204,16|16,225|225,16|16,255|255,16|16,262|262,16|16,309|309,16|16,311|311,16|16,322|322,16|16,356|356,16|16,365|365,16|16,370|370,16|16,381|381,16|16,385|385,16|16,402|402,16|16,405|405,16|16,419|419,16|16,449|449,16|16,460|460,16|16,478|478,16|16,483|483,16|16,484|484,16|16,487|487,16|16,504|504,16|16,510|510,16|16,572|572,16|16,680|680,16|16,682|682,16|17,35|35,17|17,43|43,17|17,60|60,17|17,62|62,17|17,154|154,17|17,187|187,17|17,196|196,17|17,261|261,17|17,270|270,17|17,275|275,17|17,281|281,17|17,291|291,17|17,314|314,17|17,337|337,17|17,371|371,17|17,395|395,17|17,408|408,17|17,438|438,17|17,448|448,17|17,464|464,17|17,466|466,17|17,477|477,17|17,482|482,17|17,493|493,17|17,521|521,17|17,527|527,17|17,533|533,17|17,540|540,17|17,552|552,17|17,585|585,17|17,590|590,17|17,621|621,17|17,625|625,17|17,640|640,17|17,676|676,17|17,687|687,17|17,692|692,17|17,697|697,17|17,712|712,17|18,36|36,18|18,41|41,18|18,63|63,18|18,64|64,18|18,85|85,18|18,94|94,18|18,101|101,18|18,105|105,18|18,113|113,18|18,118|118,18|18,151|151,18|18,159|159,18|18,169|169,18|18,173|173,18|18,176|176,18|18,209|209,18|18,234|234,18|18,252|252,18|18,295|295,18|18,307|307,18|18,319|319,18|18,363|363,18|18,364|364,18|18,366|366,18|18,373|373,18|18,379|379,18|18,427|427,18|18,432|432,18|18,452|452,18|18,461|461,18|18,474|474,18|18,539|539,18|18,543|543,18|18,578|578,18|18,586|586,18|18,619|619,18|];
nodes = [|1,9,0,0,0,0,1,1|2,9,0,0,0,0,1,2|3,9,0,0,0,0,1,3|4,9,0,0,0,0,1,4|5,9,0,0,0,0,1,5|6,9,0,0,0,0,1,6|7,9,0,0,0,0,1,7|8,9,0,0,0,0,1,8|9,9,0,0,0,0,1,9|10,9,0,0,0,0,1,10|11,9,0,0,0,0,1,11|12,9,0,0,0,0,1,12|13,9,0,0,0,0,1,13|14,9,0,0,0,0,1,14|15,9,0,0,0,0,1,15|16,9,0,0,0,0,1,16|17,9,0,0,0,0,1,17|18,9,0,0,0,0,1,18|19,10,0,0,0,0,1,1|20,10,0,0,0,0,1,2|21,10,0,0,0,0,1,3|22,10,0,0,0,0,1,4|23,10,0,0,0,0,1,5|24,10,0,0,0,0,1,6|25,10,0,0,0,0,1,7|26,10,0,0,0,0,1,8|27,10,0,0,0,0,1,9|28,10,0,0,0,0,1,10|29,10,0,0,0,0,1,11|30,10,0,0,0,0,1,12|31,10,0,0,0,0,1,13|32,10,0,0,0,0,1,14|33,10,0,0,0,0,1,15|34,10,0,0,0,0,1,16|35,10,0,0,0,0,1,17|36,10,0,0,0,0,1,18|37,3,0,0,0,0,1,12|38,5,0,0,0,0,1,9|39,5,0,0,0,0,1,5|40,3,0,0,0,0,1,6|41,3,0,0,0,0,1,18|42,2,0,0,0,0,1,3|43,3,0,0,0,0,1,17|44,4,0,0,0,0,1,3|45,2,0,0,0,0,1,13|46,5,0,0,0,0,1,4|47,5,0,0,0,0,1,5|48,2,0,0,0,0,1,11|49,2,0,0,0,0,1,7|50,5,0,0,0,0,1,13|51,2,0,0,0,0,1,1|52,1,0,0,0,0,1,13|53,3,0,0,0,0,1,12|54,3,0,0,0,0,1,8|55,4,0,0,0,0,1,5|56,4,0,0,0,0,1,12|57,4,0,0,0,0,1,3|58,1,0,0,0,0,1,12|59,1,0,0,0,0,1,10|60,4,0,0,0,0,1,17|61,3,0,0,0,0,1,11|62,4,0,0,0,0,1,17|63,3,0,0,0,0,1,18|64,2,0,0,0,0,1,18|65,4,0,0,0,0,1,1|66,5,0,0,0,0,1,1|67,1,0,0,0,0,1,13|68,5,0,0,0,0,1,3|69,1,0,0,0,0,1,11|70,4,0,0,0,0,1,8|71,1,0,0,0,0,1,16|72,3,0,0,0,0,1,7|73,2,0,0,0,0,1,8|74,3,0,0,0,0,1,5|75,5,0,0,0,0,1,5|76,2,0,0,0,0,1,7|77,2,0,0,0,0,1,6|78,1,0,0,0,0,1,10|79,1,0,0,0,0,1,15|80,2,0,0,0,0,1,11|81,1,0,0,0,0,1,12|82,3,0,0,0,0,1,14|83,4,0,0,0,0,1,8|84,1,0,0,0,0,1,11|85,4,0,0,0,0,1,18|86,5,0,0,0,0,1,12|87,5,0,0,0,0,1,15|88,3,0,0,0,0,1,3|89,3,0,0,0,0,1,6|90,2,0,0,0,0,1,5|91,4,0,0,0,0,1,8|92,2,0,0,0,0,1,9|93,1,0,0,0,0,1,16|94,5,0,0,0,0,1,18|95,1,0,0,0,0,1,5|96,1,0,0,0,0,1,8|97,3,0,0,0,0,1,2|98,3,0,0,0,0,1,11|99,1,0,0,0,0,1,14|100,4,0,0,0,0,1,6|101,5,0,0,0,0,1,18|102,3,0,0,0,0,1,16|103,2,0,0,0,0,1,5|104,5,0,0,0,0,1,6|105,4,0,0,0,0,1,18|106,3,0,0,0,0,1,4|107,5,0,0,0,0,1,15|108,4,0,0,0,0,1,12|109,1,0,0,0,0,1,16|110,5,0,0,0,0,1,6|111,3,0,0,0,0,1,8|112,3,0,0,0,0,1,5|113,5,0,0,0,0,1,18|114,4,0,0,0,0,1,12|115,3,0,0,0,0,1,1|116,5,0,0,0,0,1,11|117,4,0,0,0,0,1,1|118,5,0,0,0,0,1,18|119,1,0,0,0,0,1,1|120,3,0,0,0,0,1,15|121,1,0,0,0,0,1,5|122,2,0,0,0,0,1,16|123,4,0,0,0,0,1,4|124,5,0,0,0,0,1,12|125,4,0,0,0,0,1,11|126,5,0,0,0,0,1,2|127,5,0,0,0,0,1,6|128,5,0,0,0,0,1,2|129,2,0,0,0,0,1,4|130,4,0,0,0,0,1,2|131,3,0,0,0,0,1,16|132,2,0,0,0,0,1,3|133,5,0,0,0,0,1,9|134,4,0,0,0,0,1,16|135,3,0,0,0,0,1,3|136,4,0,0,0,0,1,15|137,3,0,0,0,0,1,8|138,5,0,0,0,0,1,4|139,2,0,0,0,0,1,1|140,5,0,0,0,0,1,16|141,5,0,0,0,0,1,12|142,5,0,0,0,0,1,5|143,3,0,0,0,0,1,9|144,3,0,0,0,0,1,4|145,1,0,0,0,0,1,12|146,5,0,0,0,0,1,15|147,5,0,0,0,0,1,15|148,2,0,0,0,0,1,14|149,1,0,0,0,0,1,5|150,1,0,0,0,0,1,13|151,2,0,0,0,0,1,18|152,1,0,0,0,0,1,4|153,1,0,0,0,0,1,4|154,2,0,0,0,0,1,17|155,5,0,0,0,0,1,16|156,4,0,0,0,0,1,10|157,4,0,0,0,0,1,7|158,1,0,0,0,0,1,5|159,5,0,0,0,0,1,18|160,2,0,0,0,0,1,6|161,3,0,0,0,0,1,4|162,2,0,0,0,0,1,7|163,1,0,0,0,0,1,14|164,5,0,0,0,0,1,15|165,5,0,0,0,0,1,12|166,2,0,0,0,0,1,1|167,5,0,0,0,0,1,6|168,4,0,0,0,0,1,11|169,4,0,0,0,0,1,18|170,4,0,0,0,0,1,3|171,4,0,0,0,0,1,1|172,3,0,0,0,0,1,8|173,5,0,0,0,0,1,18|174,1,0,0,0,0,1,11|175,4,0,0,0,0,1,15|176,5,0,0,0,0,1,18|177,5,0,0,0,0,1,14|178,4,0,0,0,0,1,4|179,3,0,0,0,0,1,4|180,3,0,0,0,0,1,8|181,3,0,0,0,0,1,5|182,1,0,0,0,0,1,13|183,1,0,0,0,0,1,3|184,5,0,0,0,0,1,10|185,1,0,0,0,0,1,11|186,2,0,0,0,0,1,11|187,2,0,0,0,0,1,17|188,5,0,0,0,0,1,14|189,4,0,0,0,0,1,9|190,2,0,0,0,0,1,2|191,2,0,0,0,0,1,9|192,1,0,0,0,0,1,3|193,2,0,0,0,0,1,15|194,4,0,0,0,0,1,2|195,3,0,0,0,0,1,16|196,3,0,0,0,0,1,17|197,5,0,0,0,0,1,6|198,2,0,0,0,0,1,4|199,3,0,0,0,0,1,2|200,4,0,0,0,0,1,8|201,3,0,0,0,0,1,3|202,1,0,0,0,0,1,12|203,4,0,0,0,0,1,12|204,1,0,0,0,0,1,16|205,2,0,0,0,0,1,3|206,3,0,0,0,0,1,1|207,1,0,0,0,0,1,10|208,2,0,0,0,0,1,12|209,4,0,0,0,0,1,18|210,5,0,0,0,0,1,3|211,2,0,0,0,0,1,12|212,4,0,0,0,0,1,3|213,5,0,0,0,0,1,14|214,5,0,0,0,0,1,12|215,3,0,0,0,0,1,13|216,2,0,0,0,0,1,10|217,2,0,0,0,0,1,13|218,3,0,0,0,0,1,6|219,3,0,0,0,0,1,15|220,5,0,0,0,0,1,11|221,5,0,0,0,0,1,9|222,1,0,0,0,0,1,2|223,3,0,0,0,0,1,6|224,5,0,0,0,0,1,1|225,2,0,0,0,0,1,16|226,5,0,0,0,0,1,14|227,1,0,0,0,0,1,13|228,2,0,0,0,0,1,3|229,4,0,0,0,0,1,11|230,1,0,0,0,0,1,15|231,5,0,0,0,0,1,1|232,1,0,0,0,0,1,11|233,4,0,0,0,0,1,14|234,2,0,0,0,0,1,18|235,2,0,0,0,0,1,7|236,4,0,0,0,0,1,5|237,2,0,0,0,0,1,3|238,4,0,0,0,0,1,1|239,1,0,0,0,0,1,13|240,4,0,0,0,0,1,1|241,5,0,0,0,0,1,14|242,2,0,0,0,0,1,7|243,5,0,0,0,0,1,10|244,2,0,0,0,0,1,11|245,3,0,0,0,0,1,6|246,2,0,0,0,0,1,15|247,2,0,0,0,0,1,4|248,2,0,0,0,0,1,11|249,1,0,0,0,0,1,12|250,2,0,0,0,0,1,6|251,4,0,0,0,0,1,11|252,1,0,0,0,0,1,18|253,3,0,0,0,0,1,7|254,2,0,0,0,0,1,10|255,5,0,0,0,0,1,16|256,1,0,0,0,0,1,4|257,4,0,0,0,0,1,10|258,2,0,0,0,0,1,8|259,5,0,0,0,0,1,15|260,4,0,0,0,0,1,3|261,3,0,0,0,0,1,17|262,2,0,0,0,0,1,16|263,5,0,0,0,0,1,7|264,4,0,0,0,0,1,3|265,1,0,0,0,0,1,15|266,2,0,0,0,0,1,14|267,2,0,0,0,0,1,5|268,4,0,0,0,0,1,6|269,5,0,0,0,0,1,7|270,3,0,0,0,0,1,17|271,2,0,0,0,0,1,13|272,2,0,0,0,0,1,9|273,3,0,0,0,0,1,3|274,1,0,0,0,0,1,3|275,2,0,0,0,0,1,17|276,1,0,0,0,0,1,11|277,4,0,0,0,0,1,7|278,5,0,0,0,0,1,9|279,1,0,0,0,0,1,12|280,4,0,0,0,0,1,10|281,3,0,0,0,0,1,17|282,5,0,0,0,0,1,9|283,1,0,0,0,0,1,14|284,2,0,0,0,0,1,13|285,5,0,0,0,0,1,13|286,3,0,0,0,0,1,13|287,1,0,0,0,0,1,8|288,5,0,0,0,0,1,7|289,4,0,0,0,0,1,1|290,3,0,0,0,0,1,2|291,3,0,0,0,0,1,17|292,2,0,0,0,0,1,3|293,3,0,0,0,0,1,9|294,2,0,0,0,0,1,8|295,3,0,0,0,0,1,18|296,4,0,0,0,0,1,2|297,3,0,0,0,0,1,1|298,5,0,0,0,0,1,1|299,3,0,0,0,0,1,9|300,1,0,0,0,0,1,8|301,1,0,0,0,0,1,6|302,4,0,0,0,0,1,1|303,3,0,0,0,0,1,7|304,1,0,0,0,0,1,1|305,2,0,0,0,0,1,4|306,1,0,0,0,0,1,14|307,2,0,0,0,0,1,18|308,4,0,0,0,0,1,6|309,4,0,0,0,0,1,16|310,4,0,0,0,0,1,6|311,3,0,0,0,0,1,16|312,2,0,0,0,0,1,12|313,5,0,0,0,0,1,5|314,1,0,0,0,0,1,17|315,5,0,0,0,0,1,2|316,1,0,0,0,0,1,4|317,4,0,0,0,0,1,10|318,5,0,0,0,0,1,7|319,3,0,0,0,0,1,18|320,4,0,0,0,0,1,10|321,4,0,0,0,0,1,4|322,1,0,0,0,0,1,16|323,5,0,0,0,0,1,5|324,5,0,0,0,0,1,8|325,5,0,0,0,0,1,14|326,5,0,0,0,0,1,14|327,2,0,0,0,0,1,3|328,3,0,0,0,0,1,5|329,1,0,0,0,0,1,2|330,5,0,0,0,0,1,5|331,1,0,0,0,0,1,9|332,2,0,0,0,0,1,2|333,2,0,0,0,0,1,12|334,4,0,0,0,0,1,5|335,1,0,0,0,0,1,13|336,1,0,0,0,0,1,2|337,3,0,0,0,0,1,17|338,4,0,0,0,0,1,11|339,2,0,0,0,0,1,10|340,4,0,0,0,0,1,3|341,2,0,0,0,0,1,14|342,4,0,0,0,0,1,1|343,1,0,0,0,0,1,13|344,4,0,0,0,0,1,14|345,1,0,0,0,0,1,13|346,4,0,0,0,0,1,9|347,5,0,0,0,0,1,12|348,1,0,0,0,0,1,4|349,5,0,0,0,0,1,14|350,3,0,0,0,0,1,12|351,5,0,0,0,0,1,2|352,4,0,0,0,0,1,4|353,4,0,0,0,0,1,1|354,4,0,0,0,0,1,9|355,1,0,0,0,0,1,9|356,5,0,0,0,0,1,16|357,3,0,0,0,0,1,4|358,1,0,0,0,0,1,3|359,5,0,0,0,0,1,7|360,4,0,0,0,0,1,12|361,4,0,0,0,0,1,15|362,1,0,0,0,0,1,4|363,3,0,0,0,0,1,18|364,5,0,0,0,0,1,18|365,5,0,0,0,0,1,16|366,1,0,0,0,0,1,18|367,4,0,0,0,0,1,14|368,5,0,0,0,0,1,3|369,2,0,0,0,0,1,15|370,1,0,0,0,0,1,16|371,4,0,0,0,0,1,17|372,3,0,0,0,0,1,2|373,1,0,0,0,0,1,18|374,2,0,0,0,0,1,10|375,4,0,0,0,0,1,14|376,3,0,0,0,0,1,8|377,2,0,0,0,0,1,2|378,1,0,0,0,0,1,13|379,5,0,0,0,0,1,18|380,3,0,0,0,0,1,8|381,1,0,0,0,0,1,16|382,2,0,0,0,0,1,9|383,5,0,0,0,0,1,15|384,2,0,0,0,0,1,12|385,5,0,0,0,0,1,16|386,3,0,0,0,0,1,9|387,3,0,0,0,0,1,13|388,4,0,0,0,0,1,5|389,5,0,0,0,0,1,8|390,5,0,0,0,0,1,14|391,4,0,0,0,0,1,8|392,1,0,0,0,0,1,8|393,4,0,0,0,0,1,9|394,3,0,0,0,0,1,5|395,5,0,0,0,0,1,17|396,3,0,0,0,0,1,15|397,1,0,0,0,0,1,10|398,5,0,0,0,0,1,11|399,1,0,0,0,0,1,6|400,2,0,0,0,0,1,15|401,4,0,0,0,0,1,9|402,4,0,0,0,0,1,16|403,5,0,0,0,0,1,11|404,4,0,0,0,0,1,4|405,1,0,0,0,0,1,16|406,1,0,0,0,0,1,10|407,3,0,0,0,0,1,11|408,4,0,0,0,0,1,17|409,4,0,0,0,0,1,9|410,5,0,0,0,0,1,10|411,3,0,0,0,0,1,4|412,2,0,0,0,0,1,3|413,5,0,0,0,0,1,10|414,4,0,0,0,0,1,14|415,2,0,0,0,0,1,10|416,4,0,0,0,0,1,8|417,2,0,0,0,0,1,4|418,5,0,0,0,0,1,7|419,3,0,0,0,0,1,16|420,5,0,0,0,0,1,5|421,3,0,0,0,0,1,2|422,2,0,0,0,0,1,2|423,5,0,0,0,0,1,10|424,1,0,0,0,0,1,2|425,5,0,0,0,0,1,12|426,4,0,0,0,0,1,6|427,3,0,0,0,0,1,18|428,3,0,0,0,0,1,7|429,3,0,0,0,0,1,7|430,5,0,0,0,0,1,7|431,3,0,0,0,0,1,7|432,5,0,0,0,0,1,18|433,3,0,0,0,0,1,11|434,3,0,0,0,0,1,10|435,4,0,0,0,0,1,7|436,1,0,0,0,0,1,14|437,1,0,0,0,0,1,10|438,1,0,0,0,0,1,17|439,4,0,0,0,0,1,10|440,1,0,0,0,0,1,15|441,4,0,0,0,0,1,8|442,5,0,0,0,0,1,8|443,3,0,0,0,0,1,4|444,2,0,0,0,0,1,9|445,2,0,0,0,0,1,3|446,3,0,0,0,0,1,2|447,1,0,0,0,0,1,5|448,4,0,0,0,0,1,17|449,2,0,0,0,0,1,16|450,3,0,0,0,0,1,14|451,4,0,0,0,0,1,14|452,3,0,0,0,0,1,18|453,3,0,0,0,0,1,9|454,3,0,0,0,0,1,8|455,3,0,0,0,0,1,11|456,2,0,0,0,0,1,15|457,3,0,0,0,0,1,13|458,2,0,0,0,0,1,9|459,4,0,0,0,0,1,13|460,2,0,0,0,0,1,16|461,1,0,0,0,0,1,18|462,3,0,0,0,0,1,11|463,1,0,0,0,0,1,7|464,3,0,0,0,0,1,17|465,3,0,0,0,0,1,8|466,3,0,0,0,0,1,17|467,4,0,0,0,0,1,11|468,5,0,0,0,0,1,7|469,3,0,0,0,0,1,9|470,5,0,0,0,0,1,9|471,5,0,0,0,0,1,15|472,1,0,0,0,0,1,4|473,5,0,0,0,0,1,7|474,2,0,0,0,0,1,18|475,1,0,0,0,0,1,1|476,4,0,0,0,0,1,9|477,2,0,0,0,0,1,17|478,2,0,0,0,0,1,16|479,1,0,0,0,0,1,4|480,2,0,0,0,0,1,6|481,2,0,0,0,0,1,6|482,2,0,0,0,0,1,17|483,1,0,0,0,0,1,16|484,3,0,0,0,0,1,16|485,3,0,0,0,0,1,2|486,2,0,0,0,0,1,15|487,2,0,0,0,0,1,16|488,2,0,0,0,0,1,15|489,4,0,0,0,0,1,14|490,5,0,0,0,0,1,14|491,1,0,0,0,0,1,15|492,5,0,0,0,0,1,6|493,4,0,0,0,0,1,17|494,2,0,0,0,0,1,13|495,2,0,0,0,0,1,8|496,1,0,0,0,0,1,7|497,4,0,0,0,0,1,6|498,1,0,0,0,0,1,9|499,5,0,0,0,0,1,5|500,5,0,0,0,0,1,3|501,5,0,0,0,0,1,13|502,2,0,0,0,0,1,11|503,4,0,0,0,0,1,10|504,3,0,0,0,0,1,16|505,5,0,0,0,0,1,7|506,2,0,0,0,0,1,1|507,2,0,0,0,0,1,14|508,3,0,0,0,0,1,10|509,3,0,0,0,0,1,2|510,2,0,0,0,0,1,16|511,1,0,0,0,0,1,14|512,5,0,0,0,0,1,13|513,2,0,0,0,0,1,4|514,5,0,0,0,0,1,1|515,5,0,0,0,0,1,8|516,4,0,0,0,0,1,3|517,2,0,0,0,0,1,3|518,2,0,0,0,0,1,5|519,1,0,0,0,0,1,6|520,3,0,0,0,0,1,1|521,2,0,0,0,0,1,17|522,1,0,0,0,0,1,15|523,3,0,0,0,0,1,4|524,1,0,0,0,0,1,7|525,3,0,0,0,0,1,10|526,5,0,0,0,0,1,13|527,1,0,0,0,0,1,17|528,3,0,0,0,0,1,1|529,4,0,0,0,0,1,1|530,4,0,0,0,0,1,8|531,3,0,0,0,0,1,5|532,1,0,0,0,0,1,2|533,4,0,0,0,0,1,17|534,2,0,0,0,0,1,11|535,2,0,0,0,0,1,11|536,1,0,0,0,0,1,15|537,1,0,0,0,0,1,6|538,5,0,0,0,0,1,10|539,4,0,0,0,0,1,18|540,4,0,0,0,0,1,17|541,3,0,0,0,0,1,14|542,5,0,0,0,0,1,3|543,5,0,0,0,0,1,18|544,4,0,0,0,0,1,5|545,1,0,0,0,0,1,15|546,3,0,0,0,0,1,2|547,4,0,0,0,0,1,7|548,5,0,0,0,0,1,13|549,1,0,0,0,0,1,15|550,3,0,0,0,0,1,7|551,2,0,0,0,0,1,2|552,2,0,0,0,0,1,17|553,3,0,0,0,0,1,14|554,4,0,0,0,0,1,3|555,5,0,0,0,0,1,2|556,3,0,0,0,0,1,4|557,3,0,0,0,0,1,6|558,4,0,0,0,0,1,10|559,1,0,0,0,0,1,6|560,4,0,0,0,0,1,8|561,2,0,0,0,0,1,14|562,2,0,0,0,0,1,2|563,1,0,0,0,0,1,10|564,2,0,0,0,0,1,6|565,2,0,0,0,0,1,12|566,5,0,0,0,0,1,8|567,4,0,0,0,0,1,10|568,4,0,0,0,0,1,7|569,2,0,0,0,0,1,3|570,3,0,0,0,0,1,12|571,2,0,0,0,0,1,10|572,3,0,0,0,0,1,16|573,3,0,0,0,0,1,8|574,5,0,0,0,0,1,15|575,1,0,0,0,0,1,6|576,5,0,0,0,0,1,4|577,1,0,0,0,0,1,1|578,2,0,0,0,0,1,18|579,5,0,0,0,0,1,1|580,2,0,0,0,0,1,1|581,1,0,0,0,0,1,1|582,3,0,0,0,0,1,14|583,4,0,0,0,0,1,1|584,5,0,0,0,0,1,5|585,5,0,0,0,0,1,17|586,1,0,0,0,0,1,18|587,3,0,0,0,0,1,5|588,1,0,0,0,0,1,15|589,1,0,0,0,0,1,14|590,2,0,0,0,0,1,17|591,5,0,0,0,0,1,1|592,4,0,0,0,0,1,5|593,1,0,0,0,0,1,2|594,4,0,0,0,0,1,11|595,5,0,0,0,0,1,13|596,2,0,0,0,0,1,13|597,1,0,0,0,0,1,11|598,3,0,0,0,0,1,12|599,4,0,0,0,0,1,1|600,4,0,0,0,0,1,7|601,2,0,0,0,0,1,12|602,4,0,0,0,0,1,7|603,4,0,0,0,0,1,2|604,2,0,0,0,0,1,10|605,3,0,0,0,0,1,8|606,2,0,0,0,0,1,5|607,5,0,0,0,0,1,9|608,3,0,0,0,0,1,13|609,2,0,0,0,0,1,11|610,5,0,0,0,0,1,10|611,3,0,0,0,0,1,15|612,3,0,0,0,0,1,9|613,1,0,0,0,0,1,12|614,5,0,0,0,0,1,6|615,5,0,0,0,0,1,9|616,3,0,0,0,0,1,8|617,1,0,0,0,0,1,7|618,2,0,0,0,0,1,12|619,1,0,0,0,0,1,18|620,4,0,0,0,0,1,7|621,1,0,0,0,0,1,17|622,2,0,0,0,0,1,4|623,3,0,0,0,0,1,13|624,2,0,0,0,0,1,6|625,3,0,0,0,0,1,17|626,1,0,0,0,0,1,5|627,5,0,0,0,0,1,6|628,3,0,0,0,0,1,15|629,1,0,0,0,0,1,13|630,1,0,0,0,0,1,4|631,1,0,0,0,0,1,13|632,2,0,0,0,0,1,1|633,4,0,0,0,0,1,12|634,4,0,0,0,0,1,10|635,4,0,0,0,0,1,4|636,1,0,0,0,0,1,12|637,3,0,0,0,0,1,3|638,1,0,0,0,0,1,4|639,4,0,0,0,0,1,2|640,1,0,0,0,0,1,17|641,4,0,0,0,0,1,11|642,2,0,0,0,0,1,3|643,2,0,0,0,0,1,7|644,4,0,0,0,0,1,8|645,2,0,0,0,0,1,4|646,1,0,0,0,0,1,15|647,2,0,0,0,0,1,14|648,1,0,0,0,0,1,8|649,3,0,0,0,0,1,4|650,3,0,0,0,0,1,14|651,2,0,0,0,0,1,3|652,5,0,0,0,0,1,12|653,1,0,0,0,0,1,3|654,4,0,0,0,0,1,4|655,1,0,0,0,0,1,1|656,2,0,0,0,0,1,10|657,4,0,0,0,0,1,6|658,2,0,0,0,0,1,9|659,1,0,0,0,0,1,1|660,5,0,0,0,0,1,6|661,4,0,0,0,0,1,7|662,4,0,0,0,0,1,3|663,2,0,0,0,0,1,12|664,4,0,0,0,0,1,8|665,4,0,0,0,0,1,2|666,1,0,0,0,0,1,10|667,2,0,0,0,0,1,11|668,3,0,0,0,0,1,6|669,5,0,0,0,0,1,5|670,2,0,0,0,0,1,7|671,2,0,0,0,0,1,14|672,5,0,0,0,0,1,7|673,4,0,0,0,0,1,11|674,1,0,0,0,0,1,1|675,1,0,0,0,0,1,2|676,3,0,0,0,0,1,17|677,2,0,0,0,0,1,13|678,1,0,0,0,0,1,10|679,5,0,0,0,0,1,14|680,5,0,0,0,0,1,16|681,2,0,0,0,0,1,7|682,5,0,0,0,0,1,16|683,1,0,0,0,0,1,14|684,3,0,0,0,0,1,9|685,5,0,0,0,0,1,5|686,4,0,0,0,0,1,15|687,2,0,0,0,0,1,17|688,2,0,0,0,0,1,2|689,5,0,0,0,0,1,8|690,4,0,0,0,0,1,9|691,1,0,0,0,0,1,2|692,1,0,0,0,0,1,17|693,5,0,0,0,0,1,4|694,5,0,0,0,0,1,6|695,2,0,0,0,0,1,2|696,3,0,0,0,0,1,2|697,5,0,0,0,0,1,17|698,5,0,0,0,0,1,12|699,3,0,0,0,0,1,1|700,5,0,0,0,0,1,2|701,2,0,0,0,0,1,15|702,2,0,0,0,0,1,13|703,3,0,0,0,0,1,10|704,1,0,0,0,0,1,3|705,2,0,0,0,0,1,11|706,5,0,0,0,0,1,6|707,5,0,0,0,0,1,8|708,5,0,0,0,0,1,5|709,2,0,0,0,0,1,11|710,4,0,0,0,0,1,9|711,3,0,0,0,0,1,9|712,3,0,0,0,0,1,17|713,4,0,0,0,0,1,13|714,2,0,0,0,0,1,6|715,5,0,0,0,0,1,15|716,1,0,0,0,0,1,15|717,2,0,0,0,0,1,11|718,3,0,0,0,0,1,10|719,5,0,0,0,0,1,9|720,1,0,0,0,0,1,2|];
